0 0 0 0
0 1 0 0
0 2 0 0
0 3 0 0
0 4 0 4
0 5 1 3
0 6 2 4
0 7 0 8
0 8 1 4
0 9 0 13
0 10 0 4
0 11 0 13
0 12 0 14
0 13 0 14
0 14 1 16
0 15 0 8
0 16 1 10
0 17 0 13
0 18 0 18
0 19 0 20
0 20 0 14
0 21 0 16
0 22 2 13
0 23 2 16
0 24 0 21
0 25 1 18
0 26 0 22
0 27 2 14
0 28 1 23
0 29 0 24
0 30 0 21
0 31 0 27
